TITLE:
Latent Class Analysis Mean Rating Vignettes c=4
DATA:
FILE = "list_lca2_8e91287d8f72d9c9c63c0ebbf1dfd272.dat";
 
VARIABLE:
NAMES = v4 v5 v2 v6 v1 v3; 
 MISSING=.;
 
  usevariables = v1 v2 v3 v4 v5 v6;

  classes      = c(4)
ANALYSIS:

    Type=mixture; ! LCA analysis
    STARTS= 500 100;
    !LRTstarts=0 0 300 20;
  
OUTPUT:
tech11 tech14;
SAVEDATA:
file = lca_4.txt ;
    save = cprob;
    format = free;
  
PLOT:

    type = plot3;
    series is v1(1) v2(2) v3(3) v4(4) v5(5) v6(6);
  
